NAME          
ROWS
 N  OBJ
 L  c1
 L  c2
COLUMNS
    MARKER    'MARKER'                 'INTORG'
    x[1]      c1        558
    x[1]      c2        893
    x[1]      OBJ       -908
    x[2]      c1        888
    x[2]      c2        580
    x[2]      OBJ       -661
    x[3]      c1        204
    x[3]      c2        933
    x[3]      OBJ       -927
    x[4]      c1        497
    x[4]      c2        589
    x[4]      OBJ       -696
    x[5]      c1        642
    x[5]      c2        888
    x[5]      OBJ       -112
    x[6]      c1        800
    x[6]      c2        97
    x[6]      OBJ       -888
    x[7]      c1        557
    x[7]      c2        441
    x[7]      OBJ       -763
    x[8]      c1        338
    x[8]      c2        700
    x[8]      OBJ       -403
    x[9]      c1        481
    x[9]      c2        584
    x[9]      OBJ       -419
    x[10]     c1        456
    x[10]     c2        142
    x[10]     OBJ       -565
    x[11]     c1        982
    x[11]     c2        275
    x[11]     OBJ       -507
    x[12]     c1        973
    x[12]     c2        344
    x[12]     OBJ       -751
    x[13]     c1        758
    x[13]     c2        886
    x[13]     OBJ       -611
    x[14]     c1        421
    x[14]     c2        306
    x[14]     OBJ       -319
    x[15]     c1        340
    x[15]     c2        895
    x[15]     OBJ       -328
    x[16]     c1        380
    x[16]     c2        404
    x[16]     OBJ       -984
    x[17]     c1        140
    x[17]     c2        179
    x[17]     OBJ       -318
    x[18]     c1        668
    x[18]     c2        106
    x[18]     OBJ       -160
    x[19]     c1        227
    x[19]     c2        926
    x[19]     OBJ       -419
    x[20]     c1        990
    x[20]     c2        675
    x[20]     OBJ       -964
    x[21]     c1        174
    x[21]     c2        789
    x[21]     OBJ       -85
    x[22]     c1        105
    x[22]     c2        320
    x[22]     OBJ       -615
    x[23]     c1        146
    x[23]     c2        622
    x[23]     OBJ       -488
    x[24]     c1        974
    x[24]     c2        597
    x[24]     OBJ       -838
    x[25]     c1        429
    x[25]     c2        778
    x[25]     OBJ       -441
    x[26]     c1        87
    x[26]     c2        839
    x[26]     OBJ       -549
    x[27]     c1        255
    x[27]     c2        808
    x[27]     OBJ       -681
    x[28]     c1        588
    x[28]     c2        599
    x[28]     OBJ       -162
    x[29]     c1        314
    x[29]     c2        531
    x[29]     OBJ       -37
    x[30]     c1        687
    x[30]     c2        662
    x[30]     OBJ       -30
    x[31]     c1        525
    x[31]     c2        924
    x[31]     OBJ       -917
    x[32]     c1        20
    x[32]     c2        350
    x[32]     OBJ       -248
    x[33]     c1        678
    x[33]     c2        191
    x[33]     OBJ       -398
    x[34]     c1        740
    x[34]     c2        859
    x[34]     OBJ       -333
    x[35]     c1        864
    x[35]     c2        629
    x[35]     OBJ       -845
    x[36]     c1        456
    x[36]     c2        740
    x[36]     OBJ       -88
    x[37]     c1        912
    x[37]     c2        957
    x[37]     OBJ       -602
    x[38]     c1        574
    x[38]     c2        734
    x[38]     OBJ       -429
    x[39]     c1        585
    x[39]     c2        252
    x[39]     OBJ       -716
    x[40]     c1        894
    x[40]     c2        212
    x[40]     OBJ       -331
    x[41]     c1        329
    x[41]     c2        556
    x[41]     OBJ       -233
    x[42]     c1        771
    x[42]     c2        511
    x[42]     OBJ       -662
    x[43]     c1        444
    x[43]     c2        587
    x[43]     OBJ       -882
    x[44]     c1        812
    x[44]     c2        567
    x[44]     OBJ       -417
    x[45]     c1        585
    x[45]     c2        956
    x[45]     OBJ       -237
RHS
    rhs       c1        12124
    rhs       c2        13206
RANGES
BOUNDS
 BV bounds    x[1]
 BV bounds    x[2]
 BV bounds    x[3]
 BV bounds    x[4]
 BV bounds    x[5]
 BV bounds    x[6]
 BV bounds    x[7]
 BV bounds    x[8]
 BV bounds    x[9]
 BV bounds    x[10]
 BV bounds    x[11]
 BV bounds    x[12]
 BV bounds    x[13]
 BV bounds    x[14]
 BV bounds    x[15]
 BV bounds    x[16]
 BV bounds    x[17]
 BV bounds    x[18]
 BV bounds    x[19]
 BV bounds    x[20]
 BV bounds    x[21]
 BV bounds    x[22]
 BV bounds    x[23]
 BV bounds    x[24]
 BV bounds    x[25]
 BV bounds    x[26]
 BV bounds    x[27]
 BV bounds    x[28]
 BV bounds    x[29]
 BV bounds    x[30]
 BV bounds    x[31]
 BV bounds    x[32]
 BV bounds    x[33]
 BV bounds    x[34]
 BV bounds    x[35]
 BV bounds    x[36]
 BV bounds    x[37]
 BV bounds    x[38]
 BV bounds    x[39]
 BV bounds    x[40]
 BV bounds    x[41]
 BV bounds    x[42]
 BV bounds    x[43]
 BV bounds    x[44]
 BV bounds    x[45]
ENDATA
